Minimize
  - 8 y_0 - 8 y_1 - 5 y_2 - 3 y_3 - 7 y_4 - 10 y_5 - 6 y_6 - 7 y_7 - 4 y_8
   - 11 y_9 - 7 y_10 - 5 y_11 - 8 y_12 - 9 y_13 - 10 y_14 - 11 y_15
   - 9 y_16 - 4 y_17 - y_18 - 9 y_19 - 12 y_20 - 4 y_21 - 9 y_22 - 5 y_23
   - 7 y_24 - 5 y_25 - 9 y_26 - 5 y_27 - 8 y_28 - 9 y_29 - 9 y_30 - 4 y_31
   - 12 y_32 - 8 y_33 - 11 y_34 - 8 y_35 - 9 y_36 - 12 y_37 - 7 y_38
   - 8 y_39 - 7 y_40 - y_41 - 8 y_42 - 7 y_43 - 10 y_45 - 9 y_46 - 6 y_47
   - 5 y_48 - 8 y_49 + 364 Constant
Subject To
 c_0: y_2 = 1
 c_1_0: y_0 + y_1 + y_33 + y_38 + y_42 >= 1
 c_1_1: y_0 + y_1 + y_5 + y_29 + y_38 + y_39 + y_49 >= 1
 c_1_2: y_2 + y_4 + y_10 + y_11 + y_27 + y_40 + y_47 >= 1
 c_1_3: y_3 + y_17 + y_18 + y_21 + y_41 >= 1
 c_1_4: y_2 + y_4 + y_10 + y_11 + y_40 + y_42 >= 1
 c_1_5: y_1 + y_5 + y_9 + y_14 + y_15 + y_29 + y_32 + y_34 + y_49 >= 1
 c_1_6: y_6 + y_7 + y_8 + y_17 + y_24 + y_25 + y_31 + y_48 >= 1
 c_1_7: y_6 + y_7 + y_12 + y_24 + y_28 + y_39 + y_48 >= 1
 c_1_8: y_6 + y_8 + y_23 + y_25 + y_27 + y_31 + y_47 >= 1
 c_1_9: y_5 + y_9 + y_15 + y_32 + y_34 + y_37 >= 1
 c_1_10: y_2 + y_4 + y_10 + y_11 + y_33 + y_40 + y_42 + y_47 >= 1
 c_1_11: y_2 + y_4 + y_10 + y_11 + y_27 + y_40 + y_47 >= 1
 c_1_12: y_7 + y_12 + y_13 + y_16 + y_19 + y_24 + y_28 + y_39 + y_46 >= 1
 c_1_13: y_12 + y_13 + y_14 + y_16 + y_19 + y_28 + y_46 >= 1
 c_1_14: y_5 + y_13 + y_14 + y_15 + y_20 + y_29 >= 1
 c_1_15: y_5 + y_9 + y_14 + y_15 + y_20 + y_29 >= 1
 c_1_16: y_12 + y_13 + y_16 + y_19 + y_28 + y_30 + y_35 + y_46 >= 1
 c_1_17: y_3 + y_6 + y_17 + y_21 + y_31 + y_48 >= 1
 c_1_18: y_3 + y_18 + y_41 + y_44 >= 1
 c_1_19: y_12 + y_13 + y_16 + y_19 + y_28 + y_46 >= 1
 c_1_20: y_14 + y_15 + y_20 >= 1
 c_1_21: y_3 + y_17 + y_21 + y_31 + y_48 >= 1
 c_1_22: y_22 + y_26 + y_45 >= 1
 c_1_23: y_8 + y_23 + y_25 + y_27 + y_31 + y_38 + y_47 >= 1
 c_1_24: y_6 + y_7 + y_12 + y_24 + y_28 + y_39 + y_48 >= 1
 c_1_25: y_6 + y_8 + y_23 + y_25 + y_27 + y_31 + y_38 + y_47 >= 1
 c_1_26: y_22 + y_26 + y_33 + y_42 + y_45 >= 1
 c_1_27: y_2 + y_8 + y_11 + y_23 + y_25 + y_27 + y_38 + y_47 >= 1
 c_1_28: y_7 + y_12 + y_13 + y_16 + y_19 + y_24 + y_28 + y_35 + y_39 + y_46
   >= 1
 c_1_29: y_1 + y_5 + y_14 + y_15 + y_29 + y_39 + y_49 >= 1
 c_1_30: y_16 + y_30 + y_35 + y_36 + y_43 + y_46 >= 1
 c_1_31: y_6 + y_8 + y_17 + y_21 + y_23 + y_25 + y_31 + y_48 >= 1
 c_1_32: y_5 + y_9 + y_32 + y_34 + y_37 >= 1
 c_1_33: y_0 + y_10 + y_26 + y_33 + y_40 + y_42 + y_45 >= 1
 c_1_34: y_5 + y_9 + y_32 + y_34 + y_37 >= 1
 c_1_35: y_16 + y_28 + y_30 + y_35 + y_36 + y_43 + y_46 >= 1
 c_1_36: y_30 + y_35 + y_36 >= 1
 c_1_37: y_9 + y_32 + y_34 + y_37 >= 1
 c_1_38: y_0 + y_1 + y_23 + y_25 + y_27 + y_38 + y_39 + y_47 >= 1
 c_1_39: y_1 + y_7 + y_12 + y_24 + y_28 + y_29 + y_38 + y_39 + y_49 >= 1
 c_1_40: y_2 + y_4 + y_10 + y_11 + y_33 + y_40 + y_42 + y_47 >= 1
 c_1_41: y_3 + y_18 + y_41 + y_44 >= 1
 c_1_42: y_0 + y_4 + y_10 + y_26 + y_33 + y_40 + y_42 + y_45 >= 1
 c_1_43: y_30 + y_35 + y_43 >= 1
 c_1_44: y_18 + y_41 + y_44 >= 1
 c_1_45: y_22 + y_26 + y_33 + y_42 + y_45 >= 1
 c_1_46: y_12 + y_13 + y_16 + y_19 + y_28 + y_30 + y_35 + y_46 >= 1
 c_1_47: y_2 + y_8 + y_10 + y_11 + y_23 + y_25 + y_27 + y_38 + y_40 + y_47
   >= 1
 c_1_48: y_6 + y_7 + y_17 + y_21 + y_24 + y_31 + y_48 >= 1
 c_1_49: y_1 + y_5 + y_29 + y_39 + y_49 >= 1
Bounds
 Constant = 1
Binaries
 y_0 y_1 y_2 y_3 y_4 y_5 y_6 y_7 y_8 y_9 y_10 y_11 y_12 y_13 y_14 y_15 y_16
 y_17 y_18 y_19 y_20 y_21 y_22 y_23 y_24 y_25 y_26 y_27 y_28 y_29 y_30 y_31
 y_32 y_33 y_34 y_35 y_36 y_37 y_38 y_39 y_40 y_41 y_42 y_43 y_44 y_45 y_46
 y_47 y_48 y_49
End
